\ LP format - for model browsing. Use MPS format to capture full model detail.
Minimize
 
Subject To
 con[0]: x[0,0] + x[0,1] + x[0,2] + x[0,3] <= 1
 con[1]: x[1,0] + x[1,1] + x[1,2] + x[1,3] <= 1
 con[2]: x[2,0] + x[2,1] + x[2,2] + x[2,3] <= 1
Bounds
Binaries
 x[0,0] x[0,1] x[0,2] x[0,3] x[1,0] x[1,1] x[1,2] x[1,3] x[2,0] x[2,1]
 x[2,2] x[2,3]
End
